%chk=sial3-r-ml-lla-ts2.chk
# opt=(modredundant,nomicro) external='. uma_s.sh'

rop-ts

0 1
 C                  5.06945600   -4.54859800   -1.13423900
 C                  4.30806300   -3.86710000   -2.03278700
 C                  3.55546600   -2.73096000   -1.63230400
 C                  3.60213000   -2.28702100   -0.28432800
 C                  4.41484000   -3.02034500    0.62466500
 C                  5.11473600   -4.11495800    0.21331000
 H                  2.81557200   -2.26480500   -3.59660600
 H                  5.63758500   -5.41674700   -1.44084500
 H                  4.25967200   -4.18120600   -3.06920500
 C                  2.79073000   -1.99337100   -2.54534600
 C                  2.86780100   -1.14371800    0.11857800
 H                  4.45854100   -2.70264700    1.65843100
 H                  5.71588100   -4.66438200    0.92699800
 C                  1.97513300   -0.54235900   -0.75877200
 C                  2.00265500   -0.94081100   -2.13719700
 C                 -2.65262500   -3.07047200    4.62942900
 C                 -1.91045800   -3.88631000    3.82627200
 C                 -1.85186900   -3.67261800    2.42664300
 C                 -2.57709900   -2.60191000    1.85267200
 C                 -3.31308500   -1.75138900    2.72070500
 C                 -3.35629300   -1.98337200    4.06610000
 H                 -0.50343200   -5.31198100    2.02714600
 H                 -2.69287300   -3.24402200    5.69707400
 H                 -1.34755400   -4.71102400    4.24720400
 C                 -1.07329500   -4.50291500    1.58613400
 C                 -2.55831500   -2.40833600    0.43494000
 H                 -3.92758700   -1.32469700    4.70815100
 C                 -1.81208400   -3.25430700   -0.35617700
 C                 -1.05096200   -4.29210400    0.24247600
 H                 -0.46681500   -4.94152200   -0.39791400
 C                  3.18665300   -0.47448400    1.41331200
 C                  2.27283800   -0.46006000    2.50988700
 C                  4.42524700    0.12300900    1.54652400
 C                  0.96954700   -1.01234500    2.41273800
 C                  2.66952400    0.12236600    3.73916700
 C                  4.79778300    0.71667300    2.77908700
 C                  0.12319900   -0.98277400    3.48356700
 C                  1.77631000    0.11459400    4.83869500
 C                  3.95203500    0.71042200    3.84469500
 H                  5.77084500    1.18632300    2.85370200
 C                  0.53111200   -0.42546000    4.71484200
 H                 -0.87338300   -1.38407900    3.39198100
 H                  2.10134400    0.55538100    5.77420200
 H                  4.24459000    1.16623100    4.78346100
 H                 -0.15393600   -0.42525400    5.55380000
 C                 -3.35294900   -1.30237500   -0.16662300
 C                 -4.77094700   -1.35206400   -0.13628000
 C                 -2.68732700   -0.25880200   -0.81017900
 C                 -5.48369400   -2.44085900    0.44551900
 C                 -5.54045800   -0.31797800   -0.73176900
 C                 -3.49097900    0.74479200   -1.46125100
 C                 -6.84722300   -2.45917300    0.46906600
 H                 -4.92966500   -3.26486900    0.87413000
 C                 -6.95907400   -0.36068800   -0.68205100
 C                 -4.86275600    0.70330900   -1.40966700
 C                 -7.60482500   -1.40159100   -0.08866300
 H                 -7.36008900   -3.29982100    0.91945200
 H                 -7.51461500    0.45188700   -1.13585800
 H                 -5.43380300    1.47851600   -1.90926400
 H                 -8.68564000   -1.43317600   -0.05341500
 C                  1.30234800   -0.19117900   -3.15578900
 N                  0.50513500    0.78071900   -2.93191100
 N                 -1.63540900    1.97890000   -2.35212900
 C                 -0.11381700    1.46696100   -4.07138400
 C                 -1.00308800    2.58319000   -3.51012900
 O                  1.21299800    0.44296300   -0.35365100
 O                 -1.37996100   -0.23754300   -0.88460400
 C                 -2.88107100    1.70600900   -2.35308300
 Al                -0.26847500    1.20280700   -1.07369100
 H                  1.50860200   -0.48789400   -4.18877700
 H                 -3.52827700    2.14819900   -3.11509900
 H                 -1.73209500    2.91603500   -4.25272400
 H                 -0.73259300    0.75332900   -4.62348700
 H                  0.64741000    1.86757600   -4.74436800
 H                  0.64070600   -1.44201900    1.47362100
 H                 -3.84401500   -0.90780500    2.30058700
 H                 -0.39126700    3.42369700   -3.18476100
 C                 -1.76304300   -3.12599200   -1.83671000
 C                 -2.91902900   -3.00647600   -2.60690900
 C                 -0.53112400   -3.14976500   -2.48449900
 C                 -2.84048400   -2.88051500   -3.98585200
 H                 -3.88826800   -3.02118300   -2.12570800
 C                 -0.45114400   -3.03068200   -3.86376000
 H                  0.37428500   -3.24034400   -1.89674600
 C                 -1.60561600   -2.88586900   -4.62052300
 H                 -3.74952100   -2.79089100   -4.56733100
 H                  0.51725800   -3.05869500   -4.34974400
 H                 -1.54597200   -2.79778500   -5.69822500
 C                  5.42385300    0.14281100    0.44141800
 C                  6.69329500   -0.39033400    0.64933400
 C                  5.12928800    0.69348400   -0.80392500
 C                  7.63760800   -0.39509000   -0.36700100
 H                  6.93348100   -0.82510500    1.61257900
 C                  6.07173500    0.69424000   -1.81981800
 H                  4.15233400    1.12621300   -0.97578000
 C                  7.32837400    0.14401300   -1.60672800
 H                  8.61492400   -0.82604500   -0.19070400
 H                  5.82528000    1.13024000   -2.78011200
 H                  8.06363400    0.14060500   -2.40099300
 C                 -2.00621100    4.52716100   -0.04102600
 C                 -3.26677700    3.78358300    0.35836200
 O                 -4.16789200    3.61574200   -0.42651400
 O                 -3.29261100    3.40931600    1.63017000
 C                 -4.40274000    2.57344400    1.99063700
 H                 -4.39903600    1.67327300    1.37529400
 H                 -4.25231400    2.32392000    3.03613800
 H                 -5.34258800    3.10416800    1.85024900
 O                 -0.88054500    4.25626600    0.79169400
 C                  1.92429500    3.25037200   -0.96175700
 C                  2.22894600    4.30187500    0.10594800
 O                  2.90526200    5.27290200   -0.08636800
 O                  1.72852000    4.08199400    1.34096500
 C                  0.89900800    2.93942600    1.57782600
 C                 -0.35826500    3.03507400    0.74288000
 O                 -1.07060000    2.02550800    0.48064500
 O                  0.54552900    2.96872900   -0.97979400
 H                  2.47850400    2.35233800   -0.65478000
 H                  1.40913400    2.01732600    1.29611600
 C                  2.42288000    3.70854800   -2.31776600
 H                  3.48848300    3.93137700   -2.28057500
 H                  2.25106500    2.91950100   -3.05160500
 C                  0.55102600    2.92621700    3.05120700
 H                 -0.06070400    2.05141800    3.27303000
 H                  1.46806700    2.86452300    3.63447500
 H                  1.89985800    4.61372300   -2.62872500
 H                  0.00981600    3.83259600    3.32166700
 H                 -1.76779900    4.20655800   -1.05580300
 C                 -2.23557600    6.02569100    0.01037600
 H                 -1.34317800    6.54353900   -0.33714700
 H                 -3.07823100    6.29097700   -0.62633600
 H                 -2.44680800    6.33929700    1.03275000

B 114 116 F

