%chk=sial4-r-ml-lla-ts2.chk
%nprocshared=1
# opt=(modredundant,nomicro) external='. uma_s.sh'

{unknown}

0 1
 C                 -7.33743100   -2.23774000    0.53680100
 C                 -6.31836700   -3.05551900    0.15893600
 C                 -5.04184300   -2.52310000   -0.16703900
 C                 -4.81670000   -1.12100100   -0.09475000
 C                 -5.91440600   -0.29518900    0.28186600
 C                 -7.12544800   -0.83780700    0.59063200
 H                 -4.20224800   -4.38632600   -0.82933600
 H                 -8.30709400   -2.64635100    0.78811600
 H                 -6.46160500   -4.12829900    0.09942800
 C                 -4.00538200   -3.33509400   -0.64195200
 C                 -3.54185400   -0.59108400   -0.39750400
 H                 -5.77235300    0.77630300    0.32579300
 H                 -7.94235500   -0.18920500    0.88130700
 C                 -2.47716300   -1.42512100   -0.71468200
 C                 -2.75724700   -2.82178900   -0.92203000
 C                  6.50469200    0.35764000   -1.49736300
 C                  6.42371000    0.67168700   -0.17236700
 C                  5.23912300    1.22495000    0.37309400
 C                  4.10622000    1.41703200   -0.45108500
 C                  4.23320200    1.10020700   -1.83014700
 C                  5.39600900    0.59290000   -2.33689900
 H                  6.04072300    1.47081400    2.36516500
 H                  7.41599100   -0.05795000   -1.90758000
 H                  7.27195500    0.51716100    0.48453400
 C                  5.17357600    1.61793300    1.73144500
 C                  2.89471900    1.96106000    0.10446700
 H                  5.46702900    0.36621500   -3.39340800
 C                  2.87646900    2.34529500    1.42402300
 C                  4.03693100    2.16938400    2.22845000
 H                  3.98568500    2.46359300    3.26968800
 C                 -3.31284600    0.87933800   -0.43434300
 C                 -3.25434000    1.53128400   -1.70521300
 C                 -3.22239500    1.61945800    0.71950100
 C                 -3.35374300    0.81494100   -2.92673900
 C                 -3.11657300    2.93707700   -1.76318700
 C                 -3.10131100    3.03185200    0.64407000
 C                 -3.32076600    1.46380800   -4.12871500
 C                 -3.08648200    3.58399800   -3.02328500
 C                 -3.03949400    3.67132300   -0.55530900
 H                 -3.03626500    3.60130900    1.56225500
 C                 -3.18952200    2.86935300   -4.18109200
 H                 -3.41278500    0.90041100   -5.04956100
 H                 -2.98526900    4.66288500   -3.04660900
 H                 -2.92589300    4.74798500   -0.60088800
 H                 -3.17685700    3.37452200   -5.13902200
 C                  1.76125700    2.13776100   -0.85107400
 C                  1.46197500    3.40441300   -1.40995300
 C                  1.15130000    0.99147100   -1.35275500
 C                  2.00835200    4.61381200   -0.89446900
 C                  0.60163100    3.50183900   -2.53788000
 C                  0.44619200    1.08479100   -2.60310500
 C                  1.67205400    5.82111000   -1.43088900
 H                  2.68863200    4.56622600   -0.05540500
 C                  0.27711300    4.77452400   -3.07673000
 C                  0.16821400    2.31736900   -3.14968500
 C                  0.78740200    5.91320800   -2.53281700
 H                  2.09058400    6.72658300   -1.00936000
 H                 -0.38490000    4.81517700   -3.93409100
 H                 -0.37826400    2.37444400   -4.08520900
 H                  0.53553400    6.88198300   -2.94375800
 C                 -1.85046000   -3.59200800   -1.74014400
 N                 -0.64135100   -3.24558400   -1.96105400
 N                  0.45953600   -1.28739800   -3.06037200
 C                  0.04561600   -3.68130100   -3.16161000
 C                  0.24210800   -2.39552700   -3.99043500
 O                 -1.28888300   -0.91242800   -0.89732200
 O                  1.31701000   -0.16257900   -0.75820600
 C                  0.20328300   -0.08527600   -3.41931100
 Al                 0.36480100   -1.68558500   -1.06764000
 H                 -2.27993300   -4.43044800   -2.29784000
 H                 -0.18453600    0.11011700   -4.42402100
 H                 -0.64610100   -2.20531600   -4.60137500
 H                 -0.53006100   -4.42097700   -3.72320800
 H                  1.00827400   -4.11264100   -2.89692600
 H                 -3.47304000   -0.26074000   -2.89387600
 H                  3.39721100    1.27809900   -2.49274200
 H                  1.10092300   -2.50153300   -4.65674300
 C                  1.71025300    2.97925300    2.09055500
 C                  0.44531200    2.39966600    2.09243500
 C                  1.91589300    4.15257900    2.81823100
 C                 -0.57201600    2.96164500    2.85081800
 H                  0.27224600    1.48276700    1.53869100
 C                  0.88842100    4.73310500    3.54431300
 H                  2.89668800    4.61433100    2.81036400
 C                 -0.35889900    4.12674600    3.57301000
 H                 -1.53165100    2.46857900    2.90147500
 H                  1.06597700    5.64803200    4.09531700
 H                 -1.16158600    4.55504300    4.16055200
 C                 -3.25984900    0.95678300    2.04879700
 C                 -4.14272600    1.39595200    3.03156800
 C                 -2.39602300   -0.10049200    2.33978100
 C                 -4.17714700    0.78158000    4.27599000
 H                 -4.81750700    2.21605300    2.81327700
 C                 -2.43530900   -0.71990600    3.57957000
 H                 -1.67792200   -0.42795800    1.59648000
 C                 -3.32764600   -0.28047500    4.55026800
 H                 -4.87481400    1.12801600    5.02798500
 H                 -1.75258600   -1.53449000    3.78834100
 H                 -3.35733300   -0.76363400    5.51873400
 C                  2.49441000   -1.55432500    2.12389700
 C                  1.51552300   -1.26885400    3.25261800
 O                  0.77767500   -2.06845100    3.76224200
 O                  1.64813900    0.00265500    3.63372600
 C                  0.85076800    0.41645500    4.75310500
 H                 -0.20740400    0.33907700    4.51314000
 H                  1.07681500   -0.20247100    5.62041300
 H                  1.11797100    1.45386300    4.93183500
 O                  2.29777900   -2.89371600    1.65031800
 C                  2.99888000   -3.44326600   -1.39244200
 C                  3.09015500   -4.87213800   -0.85248900
 O                  3.89368400   -5.64872000   -1.28693000
 O                  2.31524200   -5.26211000    0.19055600
 C                  1.10095800   -4.62602900    0.61048500
 C                  1.26165700   -3.14541600    0.87144300
 O                  0.28922800   -2.34516100    0.75707000
 O                  1.86408200   -2.80150000   -0.92900100
 H                  2.97426000   -3.54685600   -2.48536900
 H                  0.35295500   -4.71944400   -0.17502000
 C                  4.28042100   -2.70278600   -1.01547700
 H                  5.14144900   -3.15985100   -1.50115300
 H                  4.19063500   -1.66255400   -1.32687700
 C                  0.64668600   -5.33454700    1.87049400
 H                  1.40773500   -5.24492600    2.64383300
 H                 -0.27535900   -4.87949600    2.23363100
 H                  4.43040700   -2.73597200    0.06255800
 H                  0.47098800   -6.38765600    1.65725400
 H                  2.32798900   -0.84201600    1.31067000
 C                  3.91777700   -1.49320600    2.64865400
 H                  4.63006300   -1.59820800    1.83277900
 H                  4.08744800   -0.53325100    3.12866800
 H                  4.07897000   -2.29498800    3.37065700

B 114 116 F

