%chk=sial2-r-ml-lla-ts2.chk
%nprocshared=1
# opt=(modredundant,nomicro) external='. uma_s.sh'

{unknown}

0 1
 C                  7.49311000    0.18126000   -0.08079200
 C                  6.66373800    1.19606500   -0.44212800
 C                  5.26975500    0.97253300   -0.60960800
 C                  4.72189000   -0.32154300   -0.38397900
 C                  5.63054900   -1.36650300   -0.04850800
 C                  6.96111700   -1.11900300    0.10487800
 H                  4.86047400    2.90404800   -1.45060600
 H                  8.55276300    0.35510000    0.05036900
 H                  7.05084200    2.19397500   -0.61389900
 C                  4.42453800    1.97047900   -1.10675300
 C                  3.32979000   -0.53772000   -0.51523100
 H                  5.24896500   -2.36806600    0.09024700
 H                  7.62645000   -1.93085100    0.37076200
 C                  2.47539100    0.52013900   -0.82791500
 C                  3.06740500    1.76684100   -1.24446800
 C                 -7.12282500    0.80972300   -0.08392200
 C                 -6.65336500    0.80876800    1.19708400
 C                 -5.40980800    0.21018100    1.51540100
 C                 -4.65159700   -0.41911500    0.50059600
 C                 -5.16394700   -0.38895500   -0.82453300
 C                 -6.35959600    0.20926600   -1.10730600
 H                 -5.46216700    0.73488300    3.61109000
 H                 -8.07296500    1.27205100   -0.31878100
 H                 -7.22038500    1.27524500    1.99436900
 C                 -4.89767100    0.23514700    2.83319200
 C                 -3.40804600   -1.06269400    0.82287200
 H                 -6.72855400    0.21690400   -2.12522400
 C                 -2.95155300   -1.04109400    2.12302600
 C                 -3.71274700   -0.36263100    3.11761300
 H                 -3.33563100   -0.34812500    4.13134600
 C                  2.74170200   -1.90762500   -0.44104000
 C                  2.26753100   -2.49415800   -1.66147600
 C                  2.70056200   -2.64385800    0.72135100
 C                  2.37115100   -1.83033000   -2.91227400
 C                  1.72172500   -3.79874800   -1.65028100
 C                  2.16507400   -3.95845400    0.70799900
 C                  1.95397500   -2.42692200   -4.06898800
 C                  1.27708700   -4.38557500   -2.86059900
 C                  1.67080600   -4.51326600   -0.42945100
 H                  2.13427300   -4.50777700    1.63979800
 C                  1.39332900   -3.72211100   -4.04710500
 H                  2.06938600   -1.90915200   -5.01429900
 H                  0.85562900   -5.38380500   -2.82499400
 H                  1.24229900   -5.50866800   -0.41961500
 H                  1.06929200   -4.18765000   -4.96980500
 C                 -2.69593400   -1.70644300   -0.32421900
 C                 -3.06019700   -3.00392200   -0.75961800
 C                 -1.83703100   -0.92886600   -1.09184400
 C                 -3.97127700   -3.81767400   -0.02757200
 C                 -2.53462000   -3.53167700   -1.96897300
 C                 -1.41887100   -1.42009200   -2.37395700
 C                 -4.28275100   -5.07697000   -0.44805500
 H                 -4.41115400   -3.42260300    0.87981800
 C                 -2.87238000   -4.84951900   -2.37494500
 C                 -1.74778100   -2.69501700   -2.77278600
 C                 -3.71965400   -5.61318700   -1.63150300
 H                 -4.97317400   -5.67746500    0.13089200
 H                 -2.44565100   -5.23061700   -3.29602900
 H                 -1.41531500   -3.05176000   -3.74157800
 H                 -3.97552400   -6.61677100   -1.94426400
 C                  2.33595100    2.59652500   -2.17744200
 N                  1.08033400    2.49200700   -2.39102400
 N                 -0.48010900    0.67011000   -3.15329300
 C                  0.52600200    2.79631500   -3.70209200
 C                  0.11851700    1.42603900   -4.25707500
 O                  1.18482700    0.33446100   -0.84658900
 O                 -1.49603600    0.26982100   -0.69430000
 C                 -0.79130700   -0.55469600   -3.34743100
 Al                -0.22774900    1.43255700   -1.26655000
 H                  2.93963300    3.21605800   -2.84836500
 H                 -0.61858200   -1.00233900   -4.32984900
 H                  1.00324500    0.89566100   -4.62430100
 H                  1.25280900    3.28878600   -4.35312200
 H                 -0.35781700    3.41891300   -3.59174500
 H                  2.81565500   -0.84390000   -2.94792500
 H                 -4.59684200   -0.85352700   -1.62040400
 H                 -0.59025400    1.53628400   -5.08027600
 C                 -1.71894800   -1.72186600    2.61022900
 C                 -0.89743300   -1.06786800    3.53282700
 C                 -1.43039400   -3.04564600    2.28786300
 C                  0.17309600   -1.72279600    4.11896900
 H                 -1.10554800   -0.03862300    3.80376400
 C                 -0.36264600   -3.70190100    2.88356700
 H                 -2.06286500   -3.58625400    1.59907800
 C                  0.44312200   -3.04644700    3.80096600
 H                  0.80014000   -1.19784200    4.82808400
 H                 -0.17322700   -4.73849800    2.63339100
 H                  1.28006200   -3.55556500    4.26309100
 C                  3.23354200   -2.12036700    2.00347100
 C                  4.09377000   -2.89781500    2.77551400
 C                  2.88525100   -0.85341800    2.45738100
 C                  4.61098300   -2.40945600    3.96652400
 H                  4.37496200   -3.88657900    2.43067800
 C                  3.40864000   -0.35797100    3.64043900
 H                  2.17430200   -0.27283500    1.88658400
 C                  4.27558800   -1.13371900    4.39838300
 H                  5.28472900   -3.02173700    4.55250200
 H                  3.12595300    0.63112600    3.97955600
 H                  4.68368200   -0.74818100    5.32394700
 C                 -0.57634300    5.55102600   -0.43640000
 C                  0.63036000    5.24346900    0.45501800
 O                  0.55676700    5.20591000    1.65117000
 O                  1.77032600    5.10645600   -0.23213800
 C                  2.92682000    4.86818600    0.58520600
 H                  3.02955900    5.65292100    1.33210200
 H                  2.83888600    3.90338500    1.08093900
 H                  3.77385900    4.87020500   -0.09412200
 O                 -1.63253300    4.66015000   -0.06857400
 C                 -0.34535000    1.87124800    1.59582800
 C                 -1.52347200    2.41667900    2.40703600
 O                 -1.52139200    2.37911400    3.60816500
 O                 -2.59785500    2.93266300    1.77886000
 C                 -2.81740300    2.71641400    0.38168700
 C                 -1.74685600    3.38734400   -0.45338500
 O                 -1.47169900    2.98388600   -1.62036200
 O                 -0.24069500    2.45817200    0.31532600
 H                 -0.54821900    0.79622100    1.48563600
 H                 -2.78459300    1.65348700    0.16025300
 C                  0.94092200    2.06425100    2.38336800
 H                  0.93706500    1.44385900    3.27848600
 H                  1.78054700    1.77443500    1.74888400
 C                 -4.17704700    3.29541200    0.04618600
 H                 -4.20830000    4.35656300    0.29097200
 H                 -4.38067300    3.16002500   -1.01693000
 H                  1.05596300    3.10559300    2.67816000
 H                 -4.94346900    2.77168700    0.61280600
 H                 -0.94836300    6.50425100   -0.05744900
 C                 -0.29247900    5.68738300   -1.91561000
 H                 -1.23070400    5.74463500   -2.46608200
 H                  0.26609700    6.60975700   -2.07828300
 H                  0.29917500    4.86169400   -2.28804300

B 114 116 F

