%chk=sial1-r-ml-lla-ts2.chk
# opt=(modredundant,nomicro) external='. uma_s.sh'

rop-ts

0 1
 C                  3.64498500   -5.48850800   -1.54726100
 C                  3.02004700   -4.61686500   -2.38434000
 C                  2.53648500   -3.37026000   -1.90483400
 C                  2.71185500   -3.01474700   -0.54137000
 C                  3.37508700   -3.95014800    0.30256000
 C                  3.81704300   -5.14394900   -0.18425100
 H                  1.84927800   -2.66345000   -3.81543300
 H                  4.00868100   -6.43927400   -1.91369200
 H                  2.87803600   -4.85897800   -3.43145100
 C                  1.91898600   -2.44366400   -2.75406900
 C                  2.25034800   -1.76276200   -0.06054000
 H                  3.51329600   -3.70567300    1.34761400
 H                  4.30728800   -5.84337900    0.48139800
 C                  1.49944400   -0.93199500   -0.88008700
 C                  1.39332500   -1.26683600   -2.27090000
 C                 -3.52542900   -2.54177800    4.59500700
 C                 -3.01695200   -3.45844300    3.72194500
 C                 -2.94585100   -3.17975900    2.33467300
 C                 -3.41572300   -1.93719900    1.84677700
 C                 -3.92227200   -0.99796500    2.78440100
 C                 -3.97759200   -1.29228200    4.11697900
 H                 -2.02348500   -5.05726600    1.79931300
 H                 -3.57319900   -2.76300300    5.65346000
 H                 -2.64881300   -4.41374700    4.07684400
 C                 -2.39973900   -4.11345700    1.42330600
 C                 -3.37435400   -1.66391600    0.44334700
 H                 -4.36596300   -0.56007500    4.81339400
 C                 -2.86259900   -2.60888100   -0.41956700
 C                 -2.35616700   -3.83137200    0.09339800
 H                 -1.95325700   -4.55783100   -0.60144900
 C                  2.73636300   -1.28281800    1.26627400
 C                  1.88875000   -1.20312200    2.41083200
 C                  4.07843900   -0.97974600    1.38537600
 C                  0.48234100   -1.36411400    2.32012800
 C                  2.45944800   -0.91968900    3.67588600
 C                  4.63564600   -0.71017500    2.66029700
 C                 -0.30319500   -1.21207300    3.42636000
 C                  1.61931100   -0.80069900    4.80952900
 C                  3.85631800   -0.71139800    3.77579700
 H                  5.69084100   -0.47710800    2.72650200
 C                  0.26763300   -0.93268400    4.68661400
 H                 -1.37607900   -1.29231200    3.34135300
 H                  2.07102500   -0.58092400    5.76996300
 H                  4.28586600   -0.49821200    4.74778000
 H                 -0.37556400   -0.82061900    5.55071000
 C                 -3.89609700   -0.37040100   -0.08095500
 C                 -5.28890000   -0.10245000   -0.04912800
 C                 -3.00982100    0.52618900   -0.67891800
 C                 -6.22712000   -1.02277400    0.50273200
 C                 -5.80908900    1.08920500   -0.62067400
 C                 -3.56963100    1.68800800   -1.32302900
 C                 -7.56138500   -0.74317000    0.52061100
 H                 -5.86970400   -1.95669000    0.91408500
 C                 -7.20409100    1.35479100   -0.58028000
 C                 -4.92074100    1.94413500   -1.28242000
 C                 -8.06556500    0.46632900   -0.01581400
 H                 -8.24922000   -1.46065100    0.95004900
 H                 -7.56649600    2.27849400   -1.01641800
 H                 -5.31301700    2.81417900   -1.80017000
 H                 -9.12754700    0.66986500    0.01414600
 C                  0.82657800   -0.34717300   -3.22800400
 N                  0.23442900    0.74619300   -2.94047600
 N                 -1.48345500    2.46343300   -2.24351200
 C                 -0.26651500    1.57041400   -4.04425700
 C                 -0.79009600    2.88180400   -3.45181700
 O                  0.99918500    0.18255600   -0.40954300
 O                 -1.72570100    0.28014400   -0.71903600
 C                 -2.76022400    2.47297600   -2.22539700
 Al                -0.25271100    1.32651500   -1.02995300
 H                  0.94199100   -0.62828400   -4.27899000
 H                 -3.29886800    3.03214900   -2.99720000
 H                 -1.45815600    3.38786700   -4.15312200
 H                 -1.09366100    1.04267000   -4.52975300
 H                  0.51712200    1.75306200   -4.78204100
 H                  0.03000600   -1.56689000    1.35627000
 H                 -4.26610800   -0.03515000    2.43115100
 H                  0.04022300    3.53329600   -3.18894500
 C                 -2.81253000   -2.40635000   -1.89228000
 C                 -3.92269500   -1.97660500   -2.61916500
 C                 -1.63567700   -2.68706800   -2.58096500
 C                 -3.84549200   -1.80119600   -3.99268000
 H                 -4.85907100   -1.79116000   -2.10948700
 C                 -1.55976400   -2.52170600   -3.95595200
 H                 -0.76551000   -3.02119300   -2.02903200
 C                 -2.66148900   -2.06803700   -4.66749100
 H                 -4.71988600   -1.47092200   -4.53948600
 H                 -0.63730200   -2.75727500   -4.47377000
 H                 -2.60608100   -1.94435800   -5.74197800
 C                  4.97823600   -0.94402100    0.20102100
 C                  6.15117500   -1.69271300    0.18198000
 C                  4.67571300   -0.14805700   -0.90373200
 C                  6.99391500   -1.66507600   -0.92032100
 H                  6.39427900   -2.31787700    1.03308800
 C                  5.51658300   -0.11800200   -2.00485500
 H                  3.77561600    0.45627300   -0.89899900
 C                  6.67780000   -0.88008500   -2.01901600
 H                  7.89618600   -2.26334100   -0.92231500
 H                  5.26493800    0.50642800   -2.85389300
 H                  7.33326400   -0.85961300   -2.88033200
 C                  2.66579100    2.55328500    1.09743300
 C                  4.12272300    2.78812400    0.73626700
 O                  5.04746900    2.45072200    1.42693700
 O                  4.25934200    3.36458400   -0.46297600
 C                  5.61734500    3.54158600   -0.88573400
 H                  6.12577000    2.57963900   -0.93109800
 H                  5.56109700    3.99448100   -1.87106100
 H                  6.14745500    4.19408400   -0.19389300
 O                  1.87524400    3.68562700    0.67981100
 C                 -1.43958200    2.91726700    1.20529700
 C                 -1.08572400    4.30918100    1.73449200
 O                 -1.44817100    4.72083500    2.79810700
 O                 -0.37103300    5.13913800    0.93083900
 C                  0.06698200    4.73544900   -0.36445000
 C                  0.99174000    3.53492500   -0.28803900
 O                  1.16770800    2.76939200   -1.27211400
 O                 -0.35976200    2.37631200    0.49930500
 H                 -2.29893500    3.08357700    0.53369200
 H                 -0.78710300    4.44129500   -0.97599900
 C                 -1.86559600    2.00097000    2.33561100
 H                 -2.74755200    2.38888700    2.84426700
 H                 -2.07966800    1.01497900    1.92379100
 C                  0.78304200    5.92276700   -0.97801400
 H                  1.16157100    5.66008400   -1.96669100
 H                  0.09638700    6.76281800   -1.06917600
 H                 -1.05893800    1.90252800    3.06272100
 H                  1.62038500    6.21530400   -0.34607800
 H                  2.33006000    1.66496300    0.55537100
 C                  2.45911400    2.38498600    2.58238400
 H                  1.43181600    2.07373400    2.77067600
 H                  3.13897900    1.62664400    2.96070500
 H                  2.65654700    3.32420000    3.10002700

B 114 116 F

