%nproc=4
%mem=4GB
#p opt b3lyp/6-31g(d)

Water geometry optimization

0 1
O   0.000000   0.000000   0.117370
H   0.000000   0.756950  -0.469483
H   0.000000  -0.756950  -0.469483

