! B3LYP def2-SVP Opt

* xyz 0 1
O   0.000000   0.000000   0.117370
H   0.000000   0.756950  -0.469483
H   0.000000  -0.756950  -0.469483
*
